data;

param n   := 6;
param n_d := 4;

set A := (1,2) (1,4) (1,3) (1,5) (2,3) (2,4) (3,5) (3,6) (4,5) (4,6) (5,6) (5,2);

param : S D F :=
1  1 6 3
2  1 4 4
3  5 6 3
4  1 5 5;

param: c :=
1 2 10 
1 3 6 
1 4 10 
1 5 10 
2 3 4 
2 4 4 
3 5 6 
3 6 4 
4 5 4 
4 6 6 
5 6 10 
5 2 4 ;


param lambda := 10;




